
Gurobi 9.1.0 (win64) logging started Tue Dec 15 14:47:54 2020

Changed value of parameter LogFile to logs/iteration14
   Prev:   Default: 
Gurobi Optimizer version 9.1.0 build v9.1.0rc0 (win64)
Thread count: 4 physical cores, 8 logical processors, using up to 8 threads
Optimize a model with 136 rows, 786 columns and 2927 nonzeros
Model fingerprint: 0x495b0fa6
Coefficient statistics:
  Matrix range     [1e+00, 1e+00]
  Objective range  [8e+02, 3e+03]
  Bounds range     [0e+00, 0e+00]
  RHS range        [1e+00, 1e+00]
Presolve removed 8 rows and 65 columns
Presolve time: 0.00s
Presolved: 128 rows, 721 columns, 2861 nonzeros

Iteration    Objective       Primal Inf.    Dual Inf.      Time
       0    1.0735917e+04   1.280000e+02   0.000000e+00      0s
     381    7.7813875e+04   0.000000e+00   0.000000e+00      0s

Solved in 381 iterations and 0.01 seconds
Optimal objective  7.781387500e+04

Solutionx[72] 1.000000 
x[76] 1.000000 
x[118] 1.000000 
x[124] 1.000000 
x[131] 1.000000 
x[132] 1.000000 
x[264] 0.250000 
x[566] 0.750000 
x[728] 0.750000 
x[1739] 0.750000 
x[1772] 1.000000 
x[2455] 0.250000 
x[4039] 1.000000 
x[22875] 1.000000 
x[10828] 0.500000 
x[8364] 0.500000 
x[18798] 0.500000 
x[30408] 0.500000 
x[3808] 1.000000 
x[12310] 1.000000 
x[12011] 1.000000 
x[27735] 0.500000 
x[30770] 0.500000 
x[8183] 0.500000 
x[10840] 1.000000 
x[10916] 1.000000 
x[17042] 0.500000 
x[28690] 0.250000 
x[26477] 0.250000 
x[13863] 1.000000 
x[27762] 0.750000 
x[2214] 0.250000 
x[16656] 0.500000 
x[33395] 0.500000 
x[27283] 0.500000 
x[7217] 0.250000 
x[20407] 1.000000 
x[1091] 1.000000 
x[19311] 1.000000 
x[30715] 1.000000 
x[356] 1.000000 
x[29429] 0.250000 
x[16881] 0.750000 
x[17474] 0.250000 
x[23694] 0.500000 
x[18510] 0.500000 
x[22797] 0.250000 
x[17149] 1.000000 
x[20201] 0.500000 
x[17856] 0.250000 
x[12182] 1.000000 
x[6986] 1.000000 
x[31465] 1.000000 
x[31815] 1.000000 
x[4747] 0.750000 
x[15835] 1.000000 
x[7514] 0.250000 
x[21353] 1.000000 
x[18942] 0.500000 
x[832] 0.500000 
x[32373] 0.500000 
x[6905] 0.250000 
x[31877] 0.250000 
x[25572] 0.750000 
